NAME : morphed18-2-8
COMMENT : Generated using the function morphInstances from the R-package netgen (Bossek,2015) - Number of clusters: 2 Alpha: 0.5
TYPE : TSP
DIMENSION : 18
EDGE_WEIGHT_TYPE : EUC_2D
NODE_COORD_SECTION
1 49.2468051998 25.1202502704
2 17.2515973122 52.3691525278
3 71.1856042382 18.3194027027
4 60.8043132144 32.4579522657
5 23.8476278085 61.1657551691
6 61.3727447623 15.1056769817
7 17.8629507537 63.5202025457
8 75.5203027558 58.3487234347
9 63.3147302756 6.2050192913
10 59.4405306727 44.2102155973
11 23.8779767395 53.0958972338
12 8.9537176353 74.99045232
13 45.250454847 18.7356040414
14 28.326477178 58.3182753994
15 14.5282368283 86.3925960838
16 79.2083084978 16.1325939553
17 1.3585188145 45.6838180652
18 18.0703662 39.4099892512
EOF
